c ren 1 -> 1
c ren 2 -> 2
c ren 3 -> 3
c ren 4 -> 4
c ren 5 -> 5
c ren 6 -> 6
c ren 7 -> 7
c ren 8 -> 8
c ren 9 -> 9
c ren 10 -> 10
c ren 11 -> 11
c ren 12 -> 12
c ren 13 -> 13
c ren 14 -> 14
c ren 15 -> 15
c ren 16 -> 16
c ren 17 -> 17
c ren 18 -> 18
c ren 19 -> 19
c ren 20 -> 20
c ren 21 -> 21
c ren 22 -> 22
c ren 23 -> 23
c ren 24 -> 24
c ren 25 -> 25
c ren 26 -> 26
c ren 27 -> 27
c ren 28 -> 28
c ren 29 -> 29
c ren 30 -> 30
c ren 31 -> 31
c ren 32 -> 32
c ren 34 -> 33
c ren 35 -> 34
c ren 37 -> 35
c ren 43 -> 36
c ren 45 -> 37
c ren 52 -> 38
c ren 53 -> 39
c ren 54 -> 40
c ren 55 -> 41
c ren 56 -> 42
c ren 59 -> 43
c ren 60 -> 44
c ren 61 -> 45
c ren 62 -> 46
c ren 63 -> 47
c ren 65 -> 48
c ren 66 -> 49
c ren 68 -> 50
c ren 69 -> 51
c ren 71 -> 52
c ren 73 -> 53
c ren 75 -> 54
c ren 77 -> 55
c ren 79 -> 56
c ren 81 -> 57
c ren 82 -> 58
c ren 83 -> 59
c ren 84 -> 60
c ren 85 -> 61
c ren 89 -> 62
c ren 90 -> 63
c ren 93 -> 64
c ren 95 -> 65
c ren 96 -> 66
c ren 98 -> 67
c ren 99 -> 68
c ren 103 -> 69
c ren 105 -> 70
c ren 107 -> 71
c ren 109 -> 72
c ren 111 -> 73
c ren 112 -> 74
c ren 113 -> 75
c ren 114 -> 76
c ren 115 -> 77
c ren 117 -> 78
c ren 118 -> 79
c ren 119 -> 80
c ren 120 -> 81
c ren 122 -> 82
c ren 123 -> 83
c ren 124 -> 84
c ren 125 -> 85
c ren 126 -> 86
c ren 127 -> 87
c ren 128 -> 88
c ren 129 -> 89
c ren 131 -> 90
c ren 133 -> 91
c ren 135 -> 92
c ren 137 -> 93
c ren 139 -> 94
c ren 141 -> 95
c ren 142 -> 96
c ren 143 -> 97
c ren 144 -> 98
c ren 145 -> 99
c ren 146 -> 100
c ren 147 -> 101
c ren 148 -> 102
c ren 149 -> 103
c ren 151 -> 104
c ren 153 -> 105
c ren 155 -> 106
c ren 157 -> 107
c ren 159 -> 108
c ren 160 -> 109
c ren 161 -> 110
c ren 162 -> 111
c ren 164 -> 112
c ren 165 -> 113
c ren 166 -> 114
c ren 167 -> 115
c ren 168 -> 116
c ren 169 -> 117
c ren 170 -> 118
c ren 171 -> 119
c ren 172 -> 120
c ren 173 -> 121
c ren 176 -> 122
c ren 177 -> 123
c ren 178 -> 124
c ren 184 -> 125
c ren 185 -> 126
c ren 189 -> 127
c ren 201 -> 128
c ren 235 -> 129
c ren 253 -> 130
c ren 254 -> 131
c ren 255 -> 132
c ren 257 -> 133
c ren 258 -> 134
c ren 287 -> 135
c ren 288 -> 136
c ren 289 -> 137
c ren 290 -> 138
c ren 291 -> 139
c ren 292 -> 140
c ren 293 -> 141
c ren 294 -> 142
c ren 295 -> 143
c ren 296 -> 144
c ren 297 -> 145
c ren 298 -> 146
p cnf 146 1162
a 119 120 121 122 123 124 0
e 35 48 52 55 57 59 116 117 118 127 0
a 1 2 3 4 5 6 7 8 9 10 11 12 13 14 15 16 17 18 19 20 21 22 23 24 25 26 27 28 29 30 31 32 0
e 33 34 36 37 38 39 40 41 42 43 44 45 46 47 49 50 51 53 54 56 58 60 61 62 63 64 65 66 67 68 69 70 71 72 73 74 75 76 77 78 79 80 81 82 83 84 85 86 87 88 89 90 91 92 93 94 95 96 97 98 99 100 101 102 103 104 105 106 107 108 109 110 111 112 113 114 115 125 126 128 129 130 131 132 133 134 135 136 137 138 139 140 141 142 143 144 145 146 0
10 12 -25 -27 -41 0
11 -27 41 -105 0
-49 51 -55 -56 75 90 0
-5 -6 -8 23 -44 0
-5 -6 -7 23 95 0
-10 -11 25 27 40 0
9 10 -26 -41 0
7 8 -21 -22 -90 0
-9 -11 -12 26 -28 -43 0
-10 -12 25 27 28 40 0
10 -26 41 -105 0
16 32 44 -49 -56 57 -67 68 -70 71 -74 88 90 96 142 144 0
1 3 -18 -20 -81 0
-1 17 91 0
9 10 12 -27 -41 0
-10 -12 25 27 -28 -43 0
1 -2 -3 4 17 -18 -19 20 -144 0
-10 -11 -12 25 -43 0
-12 25 26 27 -43 0
9 -25 -105 0
44 -49 -52 -69 96 144 0
-54 -69 120 0
69 74 0
-9 -11 -12 26 28 40 0
-11 25 26 27 40 0
-49 -57 67 0
10 11 -25 -28 -41 0
6 8 -21 -23 -63 0
10 11 -25 -27 -41 0
-12 28 41 -105 0
-49 -57 82 0
-38 -46 -97 0
-47 59 -66 103 137 0
9 10 11 -28 -41 0
-11 27 41 -105 0
14 -30 -46 -97 0
-11 12 25 26 28 -43 0
-10 26 41 -105 0
-1 -2 3 4 -17 -18 19 20 -144 0
15 -31 33 35 63 87 102 -129 0
9 11 -26 -28 -41 0
-9 25 40 0
69 -75 0
-6 -8 21 23 24 108 0
-10 -11 25 28 -43 0
-11 -12 25 26 28 40 0
-1 -2 -3 19 91 0
9 11 -26 -27 -41 0
-10 25 26 40 0
9 12 -26 -27 -41 0
-49 -57 -85 0
-9 -11 26 27 40 0
10 -25 -27 -28 -41 0
-25 -26 -27 -28 -41 0
9 10 11 -27 -41 0
-49 -57 -69 0
10 -25 -26 -41 0
-9 25 41 -105 0
-9 -12 26 27 28 40 0
40 -41 0
11 -25 -26 -28 -41 0
12 -28 41 -105 0
5 -22 -23 -24 -90 0
-10 -11 -12 25 28 85 0
5 8 -22 -23 -90 0
-9 -12 26 27 -28 -43 0
-11 -12 25 26 -28 -43 0
5 6 7 -23 -90 0
-9 -10 -12 27 -28 -43 0
-9 -10 -11 27 40 0
11 12 -25 -26 -41 0
-10 -11 -12 25 28 40 0
25 26 27 28 -43 0
-9 -10 -12 27 28 40 0
-43 -105 0
25 26 27 28 -96 0
-11 25 26 27 85 0
-9 -10 -11 -12 -43 0
-16 32 61 99 -107 109 116 -138 0
-5 -7 22 23 95 0
-89 -94 -99 0
11 -25 -26 -28 -88 0
-40 61 -107 109 -117 -138 0
99 106 -107 116 -138 0
6 8 -21 -23 -61 0
7 -23 61 -106 0
8 -21 -22 -23 -90 0
-15 31 -49 -57 0
-68 -74 -75 0
-6 -7 21 23 60 0
5 6 -22 -61 0
14 -30 -74 -75 0
-5 -7 -8 22 -62 0
-6 -8 21 23 24 60 0
6 -22 61 -106 0
-9 12 26 27 28 -96 0
56 81 0
-49 52 81 145 0
5 6 8 -23 -61 0
-6 -8 21 23 -24 -62 0
-14 30 -49 -57 0
-6 -7 -8 21 -62 0
7 -8 21 22 23 -62 0
5 -21 -106 0
16 -32 -54 75 -120 0
-49 52 -56 78 82 0
2 4 -17 -19 -81 0
-5 -7 -8 22 24 60 0
-7 21 22 23 60 0
3 -19 -145 0
6 7 -21 -24 -61 0
16 -32 -53 97 -120 0
5 -21 -42 0
6 7 -21 -23 -61 0
-8 24 61 -106 0
-13 29 -49 51 52 -56 75 90 0
-7 21 22 23 108 0
-5 -7 -8 22 24 108 0
5 6 7 -24 -61 0
-7 23 61 -106 0
-5 -6 23 24 -44 0
-8 24 -42 63 0
6 7 -21 -23 -63 0
-7 8 21 22 24 -62 0
-6 22 61 -106 0
9 11 12 -26 -88 0
5 7 -22 -24 -63 0
9 11 12 -26 -135 0
5 7 -22 -24 -61 0
-5 21 60 0
5 6 7 -24 -63 0
-13 29 -47 59 64 -66 97 137 0
-6 -7 21 24 -62 0
-7 -8 21 22 24 60 0
9 -26 -27 -28 -88 0
5 7 -22 -23 -61 0
-6 21 22 60 0
5 8 -22 -23 -61 0
-5 -7 22 23 60 0
6 -21 -23 -24 -61 0
-21 -22 -23 -24 -61 0
5 6 7 -23 -61 0
-16 32 -49 -57 0
6 -21 -22 -61 0
-5 21 61 -106 0
-5 -8 22 23 24 60 0
60 -61 0
-13 -71 0
7 -21 -22 -24 -61 0
8 -24 61 -106 0
1 3 4 -18 -81 0
-4 20 -145 0
1 2 3 -20 -81 0
-5 -8 22 23 -62 0
-7 -8 21 22 -23 -24 -62 0
-3 19 -145 0
-5 -6 -8 23 -62 0
-5 -6 -7 23 60 0
7 8 -21 -22 -61 0
-6 -7 -8 21 24 60 0
21 22 23 24 -62 0
-49 -57 -142 0
-5 -6 -8 23 24 60 0
-62 -106 0
-1 -2 18 91 0
-16 32 -49 51 52 -56 75 90 0
-5 -6 -7 24 -62 0
16 -32 61 99 -107 109 116 -138 0
-49 51 52 -56 -68 75 90 0
-49 -55 81 145 0
-10 25 26 85 0
-5 -6 -7 -8 -62 0
-71 -74 -75 0
105 106 -107 116 -138 0
2 4 -17 -19 -77 0
3 -19 -79 0
-12 28 -45 73 0
2 -17 -19 -20 -81 0
-17 -18 -19 -20 -81 0
-2 -3 17 19 76 0
1 2 -18 -77 0
1 2 3 -19 -81 0
-1 2 -3 -4 -17 18 -19 -20 -80 0
-2 -4 17 19 20 76 0
2 -18 -79 0
-1 17 146 0
-2 -3 -4 17 20 91 0
3 4 -17 -18 -81 0
1 2 4 -19 -77 0
1 -2 3 -4 17 -18 19 -20 -80 0
-49 55 -95 144 0
1 -2 -3 -4 17 -18 -19 -20 -80 0
1 2 3 -4 17 18 19 -20 -80 0
1 -17 -79 0
-1 -2 -3 4 -17 -18 -19 20 -144 0
-1 2 3 -4 -17 18 19 -20 -144 0
1 2 -3 -4 17 18 -19 -20 -144 0
-1 -3 -4 18 20 76 0
-3 17 18 19 76 0
-1 -2 3 -4 -17 -18 19 -20 -144 0
2 3 -17 -20 -77 0
-7 -8 21 22 24 108 0
2 3 -17 -19 -77 0
-4 20 -79 0
5 -21 -47 59 -66 103 0
5 8 -22 -23 -63 0
-6 21 22 108 0
1 2 3 -20 -77 0
-3 19 -79 0
-11 27 -45 73 0
-21 -22 -23 -24 -63 0
6 -21 -23 -24 -63 0
1 2 -3 4 17 18 -19 20 -80 0
-2 18 -79 0
1 -2 -3 4 17 -18 -19 20 -133 0
7 -21 -22 -24 -63 0
-13 -39 0
1 3 -18 -20 -77 0
-1 17 76 0
7 8 -21 -22 -137 0
33 63 87 102 -127 -129 0
5 6 7 -23 -63 0
1 -2 -3 4 17 -18 -19 20 -80 0
-3 -4 17 18 20 76 0
9 10 -26 -73 0
1 3 -18 -19 -77 0
-2 17 18 76 0
1 4 -18 -19 -77 0
49 50 54 58 78 81 82 90 -122 123 124 144 0
-1 -3 18 19 76 0
2 -17 -19 -20 -77 0
-17 -18 -19 -20 -77 0
1 2 3 -19 -77 0
44 49 50 54 58 78 90 -91 122 -123 -124 145 0
2 -17 -18 -77 0
-1 17 -79 0
-1 -4 18 19 20 76 0
76 -77 0
14 -30 -49 51 52 -56 75 90 0
3 -17 -18 -20 -77 0
4 -20 -79 0
9 11 -26 -27 -73 0
-5 -6 -8 23 24 95 0
-44 -82 0
-1 2 3 -4 -17 18 19 -20 -80 0
1 2 -3 -4 17 18 -19 -20 -80 0
-5 -6 -7 24 -44 0
-1 -2 3 -4 -17 -18 19 -20 -80 0
-79 -80 0
1 2 3 4 17 18 19 20 -80 0
-2 -3 -4 17 20 76 0
3 4 -17 -18 -77 0
49 50 54 58 78 81 82 90 -122 123 -124 145 0
-60 80 117 -138 0
-49 51 -55 -56 -85 90 0
-1 -2 -3 -4 20 76 0
107 117 -138 0
77 79 -109 0
-16 -32 43 62 80 83 86 89 -116 -138 0
-3 17 18 19 91 0
2 3 -17 -20 -81 0
77 107 0
77 79 116 -138 0
-9 -10 -11 -12 -96 0
-14 30 -118 -138 0
-83 -92 -93 -94 -99 0
15 -31 -93 -94 -99 0
4 -20 -145 0
61 -86 99 -107 109 116 -138 0
77 79 -117 -138 0
15 92 0
-6 -7 21 23 95 0
-15 31 -118 -138 0
7 -8 21 22 23 -44 0
-86 -93 -94 -99 0
14 -30 -94 -99 0
-9 -10 -12 27 28 85 0
9 11 -26 -27 -88 0
-14 30 99 -120 -140 0
14 93 0
-9 -12 26 27 28 85 0
-16 32 83 86 89 98 0
85 -88 0
-89 -118 -138 0
13 -29 -118 -138 0
-98 120 -140 0
94 98 0
92 -118 -138 0
13 94 0
-12 28 -78 88 0
29 -89 0
93 -118 -138 0
-11 -12 25 26 -28 -72 0
-9 -12 26 27 -28 -72 0
-15 31 99 -120 -140 0
-11 27 -78 88 0
-2 17 18 91 0
11 12 -25 -26 -73 0
-9 -10 -11 27 143 0
61 92 99 -107 109 116 -138 0
-15 31 61 99 -107 109 116 -138 0
1 2 3 -4 17 18 19 -20 -144 0
-9 -10 -12 27 28 143 0
61 93 99 -107 109 116 -138 0
-14 30 61 99 -107 109 116 -138 0
-16 32 68 69 71 142 0
-87 -128 -136 0
-5 -7 22 23 126 0
-13 29 99 -140 0
-49 -57 70 0
-45 -72 0
61 106 -107 -117 -138 0
9 10 11 -27 -88 0
7 -21 -22 -24 -90 0
16 -92 -93 -94 -99 0
10 11 -25 -27 -88 0
14 -30 99 -120 -140 0
-40 106 -107 116 -138 0
-15 31 86 89 98 0
41 43 62 80 -98 -116 -138 0
-1 -2 -4 19 20 76 0
-32 -92 -93 -94 -99 0
98 -99 0
31 -83 0
89 93 98 0
-11 12 25 26 28 -96 0
-31 92 0
-11 -12 25 26 -28 -96 0
105 -109 0
-1 -2 -3 19 76 0
-40 -118 -138 0
-6 22 -82 90 0
-98 -118 -138 0
-16 32 99 -120 -140 0
-6 -8 21 23 24 95 0
16 -32 -118 -138 0
107 -116 -138 0
-9 -10 -11 -12 28 40 0
-16 -32 83 86 89 -92 120 -140 0
6 7 -21 -23 -90 0
41 -109 0
5 6 8 -23 -90 0
11 12 -25 -26 -88 0
-60 80 -116 -138 0
9 10 11 -27 -73 0
-9 25 85 0
61 -83 99 -107 109 116 -138 0
43 61 62 77 80 122 123 124 138 139 140 141 0
5 -22 -23 -24 -137 0
12 -28 -45 73 0
-6 21 22 95 0
16 32 41 43 61 62 80 83 86 89 -92 -93 -94 -107 118 -138 0
6 -21 -23 -24 -90 0
11 -25 -26 -28 -73 0
-32 61 -76 -92 -93 -94 -107 -138 0
-60 -109 0
15 67 0
-73 143 0
-9 -12 26 27 28 143 0
-1 -2 3 4 -17 -18 19 20 -80 0
-76 -116 -138 0
2 3 -17 -19 -81 0
-9 25 -45 73 0
10 -25 -26 -73 0
41 61 105 -107 116 -138 0
107 -109 0
-21 -22 -23 -24 -90 0
79 -118 -138 0
-60 -118 -138 0
6 8 -21 -23 -90 0
107 -118 -138 0
-11 -12 25 26 28 85 0
43 62 80 -98 117 -138 0
-6 -8 21 23 -24 -44 0
-9 -10 -12 27 -28 -96 0
15 -31 99 -120 -140 0
105 106 -107 -117 -138 0
5 7 -22 -23 -90 0
16 61 -76 -92 -93 -94 -107 -138 0
-10 26 -78 88 0
15 -31 61 99 -107 109 116 -138 0
61 99 -107 109 -117 -138 0
15 -31 -118 -138 0
-76 -118 -138 0
43 61 62 -76 80 122 -123 124 138 139 140 141 0
43 61 62 77 79 122 123 -124 138 139 140 141 0
-89 99 -120 -140 0
13 -29 99 -120 -140 0
61 -89 99 -107 109 116 -138 0
61 106 -109 0
-76 -109 0
-40 61 62 80 117 -138 0
-9 25 -78 88 0
-86 99 -118 -138 0
16 32 43 62 80 83 86 89 -92 -116 -138 0
13 -29 61 99 -107 109 116 -138 0
-7 21 22 23 95 0
-1 -4 18 19 20 91 0
-81 91 0
-15 -83 0
-1 2 -3 -4 -17 18 -19 -20 -144 0
-2 -4 17 19 20 91 0
-16 -32 41 43 61 62 80 83 86 89 -92 -93 -94 -107 118 -138 0
3 -17 -18 -20 -81 0
16 32 83 86 89 120 -140 0
-8 24 -82 90 0
5 -22 -23 -24 -61 0
-6 -7 21 24 -44 0
-14 -86 0
-40 61 62 80 -116 -138 0
5 6 7 -24 -90 0
106 -118 -138 0
-14 30 89 98 0
9 10 11 -28 -88 0
-49 52 -56 75 82 0
41 61 105 -107 -117 -138 0
14 -30 99 -118 -138 0
-13 -89 0
1 2 4 -19 -81 0
1 -2 3 -4 17 -18 19 -20 -144 0
-29 94 0
-6 -7 -8 21 -44 0
86 89 92 98 0
61 106 -107 116 -138 0
5 8 -22 -23 -137 0
-10 -11 -12 25 28 114 0
1 4 -18 -19 -81 0
-1 -3 18 19 91 0
-7 -8 21 22 -23 -24 -44 0
-9 -10 -12 27 -28 -72 0
5 6 7 -23 -137 0
1 -17 -145 0
-1 -3 -4 18 20 91 0
2 -18 -145 0
25 26 27 28 -72 0
-10 -11 -12 25 28 143 0
-49 -57 -71 0
13 -29 -49 -57 0
30 -86 0
35 45 63 73 102 -129 0
-9 -10 -11 -12 -72 0
-15 31 -54 75 -120 0
-49 51 52 -56 67 75 90 0
1 -2 -3 -4 17 -18 -19 -20 -144 0
-11 25 26 27 114 0
25 26 27 28 -84 0
-5 -8 22 23 24 95 0
-90 95 0
-13 29 98 0
5 -21 -82 0
-78 -96 0
-1 -2 -3 -4 -17 -18 -19 -20 -80 0
9 12 -26 -27 -88 0
-7 -8 21 22 24 95 0
16 -32 99 -120 -140 0
10 -25 -27 -28 -88 0
-30 93 0
-10 -11 25 28 -96 0
10 -25 -26 -88 0
-13 29 -118 -138 0
6 7 -21 -24 -90 0
-25 -26 -27 -28 -88 0
-9 -10 -11 28 -43 0
-109 117 -138 0
-109 -116 -138 0
8 -24 -82 90 0
-5 6 -8 22 23 -44 0
-76 117 -138 0
-9 -11 -12 26 28 85 0
9 -26 -27 -28 -41 0
-15 31 -49 51 52 -56 75 90 0
-16 -32 44 -49 -52 68 71 96 142 144 0
-9 -12 26 27 -28 -96 0
-5 21 95 0
-16 32 -118 -138 0
-49 51 52 -56 70 75 90 0
-83 -118 -138 0
-49 -55 -56 78 82 0
16 -49 -56 -67 -70 -74 90 -91 0
9 10 -27 -28 -41 0
15 -31 -49 -57 0
-49 -57 -91 0
-49 -57 145 0
15 -31 -49 51 52 -56 75 90 0
9 -25 -41 0
21 22 23 24 -44 0
-51 88 0
-49 -52 -95 144 0
9 10 11 12 -41 0
-32 -49 -56 -67 -70 -74 90 -91 0
-51 -95 0
-16 32 -54 75 -120 0
-49 51 52 -56 75 90 -142 0
-10 12 25 27 28 -43 0
1 3 -18 -19 -81 0
14 -30 -54 75 -120 0
-49 52 -56 82 -85 0
10 11 12 -25 -41 0
-1 -2 -4 19 20 91 0
-32 -67 -70 -74 -75 0
-14 30 -49 51 52 -56 75 90 0
-15 31 68 69 71 0
-12 25 26 27 28 40 0
29 -71 0
11 -25 -26 -28 -135 0
44 -49 55 -56 -85 90 144 0
-49 -57 -68 75 0
6 -21 -22 -90 0
8 -21 -22 -23 -137 0
7 -23 -42 63 0
-49 56 -57 0
44 -49 55 -69 96 144 0
-6 -7 -8 21 24 95 0
5 6 -22 -63 0
-6 -7 21 23 108 0
-49 -52 56 0
-9 -10 -11 -12 28 85 0
-3 -4 17 18 20 91 0
5 6 8 -23 -63 0
59 -66 111 134 0
-13 29 -54 75 0
13 74 0
47 111 0
-9 12 26 27 28 -84 0
31 -142 0
16 -32 -49 -57 0
11 -25 -26 -27 -41 0
-49 -52 -91 0
69 70 71 0
-49 -57 -95 0
-9 -10 26 40 0
13 -29 -54 75 -120 0
-49 52 -56 78 88 90 0
-31 67 0
-51 -91 0
-9 12 26 27 28 -43 0
16 -67 -70 -74 -75 0
-16 -32 -54 -67 68 71 120 142 0
15 -31 -54 75 -120 0
16 32 44 -49 -52 -67 68 71 96 142 144 0
12 -25 -26 -27 -41 0
-15 -142 0
-16 -32 44 -49 -56 57 -67 68 -70 71 -74 88 90 96 142 144 0
-9 -11 12 26 28 -43 0
-14 -68 0
44 -49 -52 -85 90 144 0
16 32 -54 68 71 120 142 0
9 11 12 -26 -41 0
-5 21 -82 90 0
-14 30 69 71 0
-49 51 52 -56 -71 75 90 0
-51 56 0
-51 78 0
-9 -10 12 27 28 -43 0
13 -29 -49 51 52 -56 75 90 0
-49 -55 -56 78 88 90 0
-40 -43 0
7 -21 -22 -23 -90 0
-5 -6 22 95 0
5 6 -23 -24 -61 0
-5 -7 22 24 -44 0
5 7 8 -22 -90 0
5 -21 -90 0
-5 22 23 24 -44 0
5 -21 -61 0
14 70 0
-12 25 26 27 28 85 0
11 -25 -26 -27 -88 0
5 6 7 8 -61 0
12 -25 -26 -27 -88 0
-9 -11 12 26 28 -96 0
9 10 -27 -28 -88 0
-9 -10 26 85 0
-6 8 21 23 24 -62 0
15 -31 -70 -74 -75 0
30 -68 0
-13 29 69 0
6 7 8 -21 -61 0
-30 70 0
-13 29 -49 -57 0
14 -30 -49 -57 75 0
-1 -2 -3 -4 -17 -18 -19 -20 -144 0
-8 21 22 23 24 60 0
1 2 -18 -81 0
1 -2 3 4 17 -18 19 20 -144 0
2 3 4 -17 -81 0
1 2 -3 4 17 18 -19 20 -144 0
2 4 -17 -19 -111 0
-6 8 21 23 24 -44 0
6 7 8 -21 -90 0
-14 30 -54 75 -120 0
6 7 -21 -24 -63 0
3 -19 -134 0
9 10 11 12 -88 0
-10 12 25 27 28 -96 0
-67 -70 -74 -75 -142 0
-6 22 -42 63 0
-29 74 0
67 68 69 71 0
-2 -3 17 19 91 0
-7 23 -42 63 0
-9 -10 -11 28 -96 0
9 -25 -88 0
7 -21 -22 -23 -61 0
-9 -10 12 27 28 -96 0
5 6 7 8 -90 0
-5 -6 22 60 0
-44 -95 0
-85 -96 0
1 2 3 4 -81 0
-5 22 23 24 -62 0
-49 52 -56 82 90 0
10 11 12 -25 -88 0
-8 21 22 23 24 95 0
-4 17 18 19 20 91 0
8 -21 -22 -23 -61 0
-1 2 3 4 -17 18 19 20 -144 0
4 -17 -18 -19 -81 0
-5 -7 22 24 -62 0
1 -18 -19 -20 -81 0
1 -17 -81 0
-1 2 -3 4 -17 18 -19 20 -144 0
5 7 8 -22 -61 0
-2 18 -145 0
1 2 -19 -20 -81 0
5 6 -23 -24 -90 0
-49 55 -91 0
-5 -6 23 24 -62 0
3 -17 -18 -19 -81 0
13 -29 -75 0
-60 -62 0
10 11 -25 -28 -73 0
1 2 -19 -20 -77 0
9 10 11 -28 -73 0
10 11 -25 -27 -73 0
1 -17 -77 0
-1 17 -145 0
10 -26 -45 73 0
1 2 3 4 -77 0
9 10 12 -27 -73 0
-10 -12 25 27 -28 -72 0
44 49 50 54 58 78 81 90 122 123 -124 145 0
1 3 -18 -20 -111 0
1 -2 3 4 17 -18 19 20 -80 0
-7 23 -47 -48 -66 103 137 0
-49 -57 74 0
-50 75 119 0
2 3 4 -17 -77 0
-58 88 121 0
-58 -85 -121 0
-49 -57 78 0
-50 -69 -119 0
-4 17 18 19 20 76 0
1 2 3 4 17 18 19 20 -144 0
-5 21 108 0
9 11 -26 -28 -73 0
-9 25 143 0
16 -32 -49 51 52 -56 75 90 0
5 7 -22 -23 -63 0
9 -26 -27 -28 -135 0
34 46 0
-9 -11 -12 26 28 143 0
2 -17 -18 -81 0
-5 -7 22 23 108 0
44 49 50 54 58 78 90 -91 122 -123 124 144 0
-9 -11 -12 26 -28 -72 0
-1 -2 -3 -4 20 91 0
-63 108 0
-5 -8 22 23 24 108 0
-5 -6 -7 -8 24 95 0
-49 51 52 -56 -85 90 0
-144 -145 0
6 -21 -22 -63 0
-10 -11 25 27 143 0
44 49 50 54 58 78 81 90 122 123 124 144 0
3 -17 -18 -19 -77 0
-10 -11 -12 25 -72 0
-5 -6 -7 23 126 0
-34 -53 120 0
-1 -2 18 76 0
-39 -53 97 -120 0
-12 25 26 27 -72 0
49 50 54 58 78 82 90 -91 -122 -123 -124 145 0
-1 -2 3 4 -17 -18 19 20 -133 0
-1 2 3 4 -17 18 19 20 -80 0
-10 -12 25 27 28 143 0
-11 25 26 27 143 0
34 -97 0
4 -17 -18 -19 -77 0
-10 -11 25 28 -72 0
-11 -12 25 26 28 143 0
-1 2 -3 4 -17 18 -19 20 -80 0
-10 25 26 143 0
9 12 -26 -27 -73 0
-10 26 -45 73 0
-1 -2 -3 19 146 0
1 3 4 -18 -77 0
-5 -6 -7 -8 -44 0
-9 -11 26 27 143 0
-11 12 25 26 28 -72 0
9 -25 -45 0
49 50 54 58 78 82 90 -91 -122 -123 124 144 0
1 -18 -19 -20 -77 0
10 -25 -27 -28 -73 0
-25 -26 -27 -28 -73 0
7 -23 -82 90 0
-9 -10 -11 27 85 0
-13 29 61 99 -107 109 116 -138 0
-86 99 -120 -140 0
12 -28 -78 88 0
-9 -11 26 27 85 0
13 -29 -99 0
105 -118 -138 0
14 -30 61 99 -107 109 116 -138 0
-5 -6 -7 -8 24 60 0
-40 61 -107 109 116 -138 0
-83 99 -120 -140 0
9 11 -26 -28 -88 0
94 -118 -138 0
5 6 -22 -90 0
99 119 -139 0
-5 -7 -8 22 -44 0
-98 -119 -139 0
6 -22 -82 90 0
-1 -2 -3 4 -17 -18 -19 20 -80 0
10 11 -25 -28 -88 0
-5 -7 -8 22 24 95 0
-7 23 -82 90 0
41 121 -141 0
-7 8 21 22 24 -44 0
-40 -121 -141 0
5 7 -22 -24 -90 0
9 -25 -78 0
-12 25 26 27 -96 0
-10 -11 -12 25 -96 0
-10 -12 25 27 -28 -96 0
-47 -48 64 -66 97 137 0
9 10 12 -27 -88 0
10 -26 -78 88 0
-10 -12 25 27 28 85 0
11 -27 -45 73 0
-9 -11 -12 26 -28 -96 0
9 10 -26 -88 0
-10 -11 25 27 85 0
43 61 -76 80 106 -122 -123 124 138 139 140 141 0
11 -27 -78 88 0
10 12 -25 -27 -88 0
43 61 62 -76 79 122 -123 -124 138 139 140 141 0
43 61 77 79 106 -122 123 -124 138 139 140 141 0
10 12 -25 -27 -73 0
43 61 77 80 106 -122 123 124 138 139 140 141 0
43 61 -76 79 106 -122 -123 -124 138 139 140 141 0
8 -24 -42 63 0
1 3 4 -18 -111 0
-4 20 -134 0
1 2 3 -20 -111 0
-3 19 -134 0
-5 -6 -7 23 108 0
7 8 -21 -22 -63 0
-6 -7 -8 21 24 108 0
33 35 63 87 102 -129 -136 0
-5 -6 -8 23 24 108 0
-1 -2 18 146 0
-16 32 -47 59 64 -66 97 137 0
-38 -47 59 64 -66 97 137 0
-48 -66 111 134 0
-10 25 26 114 0
-39 -46 -97 0
2 4 -17 -19 -102 0
3 -19 -104 0
2 -17 -19 -20 -111 0
-17 -18 -19 -20 -111 0
-2 -3 17 19 101 0
1 2 -18 -102 0
1 2 3 -19 -111 0
-1 2 -3 -4 -17 18 -19 -20 -110 0
-2 -4 17 19 20 101 0
2 -18 -104 0
-2 -3 -4 17 20 146 0
3 4 -17 -18 -111 0
1 2 4 -19 -102 0
1 -2 3 -4 17 -18 19 -20 -110 0
48 -66 -126 133 0
1 -2 -3 -4 17 -18 -19 -20 -110 0
1 2 3 -4 17 18 19 -20 -110 0
1 -17 -104 0
-1 -2 -3 4 -17 -18 -19 20 -133 0
-1 2 3 -4 -17 18 19 -20 -133 0
1 2 -3 -4 17 18 -19 -20 -133 0
-1 -3 -4 18 20 101 0
-3 17 18 19 101 0
-1 -2 3 -4 -17 -18 19 -20 -133 0
2 3 -17 -20 -102 0
2 3 -17 -19 -102 0
-4 20 -104 0
1 2 3 -20 -102 0
-3 19 -104 0
1 2 -3 4 17 18 -19 20 -110 0
-2 18 -104 0
1 3 -18 -20 -102 0
-1 17 101 0
53 65 66 103 111 -114 -121 122 123 -124 -126 134 0
1 -2 -3 4 17 -18 -19 20 -110 0
-3 -4 17 18 20 101 0
53 65 66 103 111 121 122 123 124 -126 133 135 0
1 3 -18 -19 -102 0
-2 17 18 101 0
1 4 -18 -19 -102 0
-1 -3 18 19 101 0
2 -17 -19 -20 -102 0
-17 -18 -19 -20 -102 0
1 2 3 -19 -102 0
2 -17 -18 -102 0
-1 17 -104 0
-1 -4 18 19 20 101 0
101 -102 0
14 -30 -47 59 64 -66 97 137 0
3 -17 -18 -20 -102 0
4 -20 -104 0
-5 -6 -8 23 24 126 0
16 32 -36 -37 38 39 -46 -47 -66 84 -126 132 133 135 137 0
-1 2 3 -4 -17 18 19 -20 -110 0
1 2 -3 -4 17 18 -19 -20 -110 0
-1 -2 3 -4 -17 -18 19 -20 -110 0
-104 -110 0
1 2 3 4 17 18 19 20 -110 0
-2 -3 -4 17 20 101 0
3 4 -17 -18 -102 0
-108 110 127 -129 0
-47 -48 64 -66 -114 137 0
-1 -2 -3 -4 20 101 0
-3 17 18 19 146 0
2 3 -17 -20 -111 0
42 45 102 -127 -129 0
35 102 104 -129 0
-9 -10 -11 -12 -84 0
-87 -100 -112 -113 -128 0
15 -31 -87 -100 -128 0
4 -20 -134 0
102 104 -127 -129 0
15 112 0
-6 -7 21 23 126 0
-87 -100 -115 -128 0
14 -30 -87 -128 0
-9 -10 -12 27 28 114 0
9 11 -26 -27 -135 0
-14 30 87 -120 -130 0
14 100 0
-9 -12 26 27 28 114 0
-16 32 113 115 125 136 0
114 -135 0
120 -125 -130 0
125 128 0
13 128 0
-12 28 -103 135 0
29 -136 0
-15 31 87 -120 -130 0
-11 27 -103 135 0
-2 17 18 146 0
1 2 3 -4 17 18 19 -20 -133 0
-16 32 34 38 39 132 0
-13 29 87 -130 0
14 -30 33 35 63 87 102 -129 0
9 10 11 -27 -135 0
7 -21 -22 -24 -137 0
16 -87 -100 -112 -128 0
10 11 -25 -27 -135 0
14 -30 87 -120 -130 0
-15 31 115 125 136 0
-1 -2 -4 19 20 101 0
-32 -87 -100 -112 -128 0
-87 125 0
31 -113 0
-11 12 25 26 28 -84 0
-31 112 0
-11 -12 25 26 -28 -84 0
-33 45 0
-1 -2 -3 19 101 0
7 -23 -47 -48 -66 103 137 0
-16 32 87 -120 -130 0
-6 -8 21 23 24 126 0
-9 -10 -11 -12 28 143 0
-16 -32 -112 113 115 120 -130 136 0
6 7 -21 -23 -137 0
-33 73 0
5 6 8 -23 -137 0
11 12 -25 -26 -135 0
-35 -108 110 -129 0
-9 25 114 0
-6 21 22 126 0
6 -21 -23 -24 -137 0
-33 -108 0
15 37 0
-1 -2 3 4 -17 -18 19 20 -110 0
-35 -101 -129 0
2 3 -17 -19 -111 0
-16 32 33 35 63 87 102 -129 0
16 63 -100 -101 102 -112 -128 -129 0
-21 -22 -23 -24 -137 0
6 8 -21 -23 -137 0
-11 -12 25 26 28 114 0
-9 -10 -12 27 -28 -84 0
15 -31 87 -120 -130 0
33 63 102 -127 -129 -143 0
5 7 -22 -23 -137 0
35 42 87 102 -129 0
-10 26 -103 135 0
16 -32 33 35 63 87 102 -129 0
35 42 45 102 -129 0
13 -29 87 -120 -130 0
33 35 63 87 102 -115 -129 0
-33 -101 0
-15 31 33 35 63 87 102 -129 0
-7 21 22 23 126 0
-1 -4 18 19 20 146 0
-111 146 0
-15 -113 0
-1 2 -3 -4 -17 18 -19 -20 -133 0
-2 -4 17 19 20 146 0
-32 63 -100 -101 102 -112 -128 -129 0
3 -17 -18 -20 -111 0
16 32 113 115 120 -130 136 0
5 -22 -23 -24 -63 0
-14 -115 0
5 6 7 -24 -137 0
-14 30 125 136 0
9 10 11 -28 -135 0
42 63 102 -127 -129 0
-13 -136 0
1 2 4 -19 -111 0
1 -2 3 -4 17 -18 19 -20 -133 0
-29 128 0
112 115 125 136 0
35 42 102 -129 -143 0
1 4 -18 -19 -111 0
-1 -3 18 19 146 0
1 -17 -134 0
-1 -3 -4 18 20 146 0
2 -18 -134 0
13 -29 33 35 63 87 102 -129 0
33 35 63 102 -129 -143 0
30 -115 0
-15 31 -53 97 -120 0
37 -47 59 64 -66 97 137 0
1 -2 -3 -4 17 -18 -19 -20 -133 0
-5 -8 22 23 24 126 0
126 -137 0
-13 29 125 0
-8 24 -47 -48 -66 103 137 0
-84 -103 0
-1 -2 -3 -4 -17 -18 -19 -20 -110 0
9 12 -26 -27 -135 0
-7 -8 21 22 24 126 0
16 -32 87 -120 -130 0
10 -25 -27 -28 -135 0
-30 100 0
-10 -11 25 28 -84 0
10 -25 -26 -135 0
33 35 63 87 102 -113 -129 0
6 7 -21 -24 -137 0
-25 -26 -27 -28 -135 0
-9 -10 -11 28 -72 0
42 102 -127 -129 -143 0
5 -21 -47 -48 -66 103 0
-101 127 -129 0
-9 -11 -12 26 28 114 0
9 -26 -27 -28 -73 0
-15 31 -47 59 64 -66 97 137 0
16 32 -37 38 39 -48 -59 -66 84 103 132 133 0
-9 -12 26 27 -28 -84 0
-5 21 126 0
36 -47 59 64 -66 97 137 0
16 -36 -37 -46 -47 -66 137 -146 0
9 10 -27 -28 -73 0
-13 29 33 35 63 87 102 -129 0
45 63 73 102 -127 -129 0
35 42 63 102 -129 0
15 -31 -47 59 64 -66 97 137 0
9 -25 -73 0
-64 135 0
-59 -66 -126 133 0
9 10 11 12 -73 0
-32 -36 -37 -46 -47 -66 137 -146 0
-64 -126 0
-16 32 -53 97 -120 0
-47 59 64 -66 97 -132 137 0
-10 12 25 27 28 -72 0
1 3 -18 -19 -111 0
14 -30 -53 97 -120 0
10 11 12 -25 -73 0
-1 -2 -4 19 20 146 0
-32 -36 -37 -46 -97 0
-14 30 -47 59 64 -66 97 137 0
-15 31 34 38 39 0
-12 25 26 27 28 143 0
29 -39 0
42 87 102 -127 -129 0
6 -21 -22 -137 0
-16 -32 63 72 73 -100 102 -108 110 -112 113 115 -128 -129 136 0
-34 -48 -59 -66 84 103 133 135 0
-6 -7 -8 21 24 126 0
47 -59 -66 0
-9 -10 -11 -12 28 114 0
-3 -4 17 18 20 146 0
-13 29 -53 97 0
13 46 0
31 -132 0
16 32 63 72 73 -100 102 -108 110 -112 113 115 -128 -129 136 0
11 -25 -26 -27 -73 0
-59 -66 -146 0
34 36 39 0
-9 -10 26 143 0
13 -29 -53 97 -120 0
-31 37 0
-64 -146 0
-9 12 26 27 28 -72 0
16 -36 -37 -46 -97 0
-16 -32 -37 38 39 -53 120 132 0
15 -31 -53 97 -120 0
12 -25 -26 -27 -73 0
-15 -132 0
-16 -32 38 39 -48 -59 -66 84 103 132 133 0
-9 -11 12 26 28 -72 0
-14 -38 0
16 32 38 39 -53 120 132 0
9 11 12 -26 -73 0
-14 30 34 39 0
-39 -47 59 64 -66 97 137 0
47 -64 0
-64 103 0
-9 -10 12 27 28 -72 0
13 -29 -47 59 64 -66 97 137 0
-47 -48 -66 103 135 137 0
-72 -143 0
7 -21 -22 -23 -137 0
-5 -6 22 126 0
5 6 -23 -24 -63 0
5 7 8 -22 -137 0
5 -21 -137 0
5 -21 -63 0
14 36 0
-12 25 26 27 28 114 0
11 -25 -26 -27 -135 0
5 6 7 8 -63 0
12 -25 -26 -27 -135 0
-9 -11 12 26 28 -84 0
9 10 -27 -28 -135 0
-9 -10 26 114 0
15 -31 -36 -46 -97 0
30 -38 0
-13 29 34 0
6 7 8 -21 -63 0
-30 36 0
-1 -2 -3 -4 -17 -18 -19 -20 -133 0
-8 21 22 23 24 108 0
1 2 -18 -111 0
1 -2 3 4 17 -18 19 20 -133 0
2 3 4 -17 -111 0
1 2 -3 4 17 18 -19 20 -133 0
6 7 8 -21 -137 0
-14 30 -53 97 -120 0
9 10 11 12 -135 0
-10 12 25 27 28 -84 0
-36 -37 -46 -97 -132 0
-29 46 0
34 37 38 39 0
-2 -3 17 19 146 0
-9 -10 -11 28 -84 0
9 -25 -135 0
7 -21 -22 -23 -63 0
-9 -10 12 27 28 -84 0
5 6 7 8 -137 0
-5 -6 22 108 0
-84 -114 0
1 2 3 4 -111 0
10 11 12 -25 -135 0
-8 21 22 23 24 126 0
-4 17 18 19 20 146 0
8 -21 -22 -23 -63 0
-1 2 3 4 -17 18 19 20 -133 0
4 -17 -18 -19 -111 0
1 -18 -19 -20 -111 0
1 -17 -111 0
-1 2 -3 4 -17 18 -19 20 -133 0
5 7 8 -22 -63 0
-2 18 -134 0
-38 -53 97 -120 0
1 2 -19 -20 -111 0
5 6 -23 -24 -137 0
48 -66 -146 0
3 -17 -18 -19 -111 0
13 -29 -97 0
1 2 -19 -20 -102 0
1 -17 -102 0
-1 17 -134 0
1 2 3 4 -102 0
1 -2 3 4 17 -18 19 20 -110 0
-16 -32 -36 -37 38 39 -46 -47 -66 84 -126 132 133 135 137 0
-65 97 119 0
2 3 4 -17 -102 0
53 65 66 103 -114 -121 122 -123 124 -126 133 -146 0
53 65 66 103 121 122 -123 124 -126 133 135 -146 0
-34 -65 -119 0
-4 17 18 19 20 101 0
1 2 3 4 17 18 19 20 -133 0
16 -32 -47 59 64 -66 97 137 0
2 -17 -18 -111 0
-1 -2 -3 -4 20 146 0
-5 -6 -7 -8 24 126 0
-47 59 64 -66 -114 137 0
-133 -134 0
53 65 66 103 111 -114 -121 122 123 124 -126 133 0
3 -17 -18 -19 -102 0
53 65 66 103 111 121 122 123 -124 -126 134 135 0
-1 -2 18 101 0
-1 2 3 4 -17 18 19 20 -110 0
4 -17 -18 -19 -102 0
-1 2 -3 4 -17 18 -19 20 -110 0
1 3 4 -18 -102 0
1 -18 -19 -20 -102 0
-48 -59 -66 103 -114 133 137 0
-9 -10 -11 27 114 0
-14 30 33 35 63 87 102 -129 0
87 -115 -120 -130 0
12 -28 -103 135 0
-9 -11 26 27 114 0
13 -29 -87 0
33 35 63 87 102 112 -129 0
-5 -6 -7 -8 24 108 0
33 35 63 87 100 102 -129 0
87 -113 -120 -130 0
9 11 -26 -28 -135 0
5 6 -22 -137 0
72 102 -108 110 -119 122 123 124 -125 129 130 131 0
72 87 102 -108 110 119 122 123 124 129 130 131 0
-1 -2 -3 4 -17 -18 -19 20 -110 0
10 11 -25 -28 -135 0
-5 -7 -8 22 24 126 0
8 -24 -47 -48 -66 103 137 0
73 121 -131 0
-121 -131 -143 0
5 7 -22 -24 -137 0
9 -25 -103 0
72 -101 -108 110 -119 122 -123 124 -125 129 130 131 0
-12 25 26 27 -84 0
-10 -11 -12 25 -84 0
-10 -12 25 27 -28 -84 0
72 87 102 104 -108 119 122 123 -124 129 130 131 0
9 10 12 -27 -135 0
10 -26 -103 135 0
-10 -12 25 27 28 114 0
72 102 104 -108 -119 122 123 -124 -125 129 130 131 0
-9 -11 -12 26 -28 -84 0
9 10 -26 -135 0
-10 -11 25 27 114 0
11 -27 -103 135 0
10 12 -25 -27 -135 0
72 87 -101 -108 110 119 122 -123 124 129 130 131 0
53 65 66 103 121 122 -123 -124 -126 134 135 -146 0
53 65 66 103 -114 -121 122 -123 -124 -126 134 -146 0
72 87 -101 104 -108 119 122 -123 -124 129 130 131 0
72 -101 104 -108 -119 122 -123 -124 -125 129 130 131 0
